20 64 
1 5 1
1 9 1
1 11 1
2 5 1
2 6 1
2 7 1
2 9 1
3 5 1
3 6 1
3 8 1
3 10 1
3 17 1
3 19 1
4 5 1
4 6 1
4 7 1
4 8 1
4 9 1
4 10 1
4 17 1
4 19 1
5 6 1
5 7 1
5 8 1
5 10 1
5 12 1
5 18 1
5 19 1
6 7 1
6 8 1
6 10 1
6 11 1
6 14 1
6 15 1
6 16 1
6 20 1
7 14 1
7 15 1
7 16 1
7 18 1
7 19 1
7 20 1
8 9 1
8 11 1
8 12 1
8 16 1
8 17 1
9 12 1
9 13 1
9 14 1
10 11 1
10 13 1
10 15 1
10 18 1
11 12 1
11 13 1
11 14 1
11 15 1
11 20 1
12 13 1
12 17 1
12 20 1
15 16 1
17 18 1
